presolving:
(round 1, fast)       0 del vars, 54 del conss, 0 add conss, 0 chg bounds, 0 chg sides, 5670 chg coeffs, 0 upgd conss, 0 impls, 5775 clqs
   (0.0s) running MILP presolver
   (0.1s) MILP presolver found nothing
(round 2, exhaustive) 0 del vars, 54 del conss, 0 add conss, 0 chg bounds, 0 chg sides, 5670 chg coeffs, 5829 upgd conss, 0 impls, 5775 clqs
(round 3, exhaustive) 0 del vars, 5778 del conss, 54 add conss, 0 chg bounds, 0 chg sides, 5670 chg coeffs, 5829 upgd conss, 0 impls, 5775 clqs
   (0.1s) probing: 51/5724 (0.9%) - 0 fixings, 0 aggregations, 0 implications, 0 bound changes
   (0.1s) probing aborted: 50/50 successive totally useless probings
   (0.1s) symmetry computation started: requiring (bin +, int -, cont +), (fixed: bin -, int +, cont -)
   (0.1s) no symmetry present
presolving (4 rounds: 4 fast, 3 medium, 3 exhaustive):
 0 deleted vars, 5778 deleted constraints, 54 added constraints, 0 tightened bounds, 0 added holes, 0 changed sides, 5670 changed coefficients
 0 implications, 5775 cliques
presolved problem has 5724 variables (5724 bin, 0 int, 0 impl, 0 cont) and 159 constraints
    105 constraints of type <setppc>
     54 constraints of type <and>
Presolving Time: 0.09

 time | node  | left  |LP iter|LP it/n|mem/heur|mdpt |vars |cons |rows |cuts |sepa|confs|strbr|  dualbound   | primalbound  |  gap   | compl. 
p 0.1s|     1 |     0 |     0 |     - |  clique|   0 |5724 | 159 | 213 |   0 |  0 |   0 |   0 | 0.000000e+00 |-8.133047e+04 |    Inf | unknown
p 0.2s|     1 |     0 |     0 |     - | vbounds|   0 |5724 | 160 | 213 |   0 |  0 |   1 |   0 | 0.000000e+00 |-7.975247e+04 |    Inf | unknown
p 0.2s|     1 |     0 |     0 |     - | vbounds|   0 |5724 | 160 | 213 |   0 |  0 |   1 |   0 | 0.000000e+00 |-7.953547e+04 |    Inf | unknown
  0.3s|     1 |     0 |  1610 |     - |    64M |   0 |5724 | 169 | 213 |   0 |  0 |  10 |   0 |-7.468771e+04 |-7.953547e+04 |   6.49%| unknown
  0.4s|     1 |     0 |  1678 |     - |    65M |   0 |5724 | 169 | 221 |   8 |  1 |  10 |   0 |-7.469669e+04 |-7.953547e+04 |   6.48%| unknown
  0.4s|     1 |     0 |  1875 |     - |    66M |   0 |5724 | 169 | 230 |  17 |  2 |  10 |   0 |-7.470147e+04 |-7.953547e+04 |   6.47%| unknown
  0.4s|     1 |     0 |  2215 |     - |    67M |   0 |5724 | 169 | 242 |  29 |  3 |  10 |   0 |-7.471124e+04 |-7.953547e+04 |   6.46%| unknown
  0.5s|     1 |     0 |  2467 |     - |    67M |   0 |5724 | 169 | 256 |  43 |  4 |  10 |   0 |-7.472089e+04 |-7.953547e+04 |   6.44%| unknown
  0.5s|     1 |     0 |  2716 |     - |    68M |   0 |5724 | 169 | 271 |  58 |  5 |  10 |   0 |-7.472786e+04 |-7.953547e+04 |   6.43%| unknown
  0.6s|     1 |     0 |  3157 |     - |    69M |   0 |5724 | 169 | 285 |  72 |  6 |  10 |   0 |-7.473384e+04 |-7.953547e+04 |   6.42%| unknown
  0.6s|     1 |     0 |  3433 |     - |    69M |   0 |5724 | 169 | 300 |  87 |  7 |  10 |   0 |-7.473926e+04 |-7.953547e+04 |   6.42%| unknown
  0.7s|     1 |     0 |  3698 |     - |    71M |   0 |5724 | 169 | 316 | 103 |  8 |  10 |   0 |-7.474612e+04 |-7.953547e+04 |   6.41%| unknown
  0.8s|     1 |     0 |  4080 |     - |    71M |   0 |5724 | 169 | 332 | 119 |  9 |  10 |   0 |-7.475297e+04 |-7.953547e+04 |   6.40%| unknown
  0.8s|     1 |     0 |  4422 |     - |    72M |   0 |5724 | 169 | 347 | 134 | 10 |  10 |   0 |-7.476024e+04 |-7.953547e+04 |   6.39%| unknown
  0.9s|     1 |     0 |  4749 |     - |    72M |   0 |5724 | 169 | 364 | 151 | 11 |  10 |   0 |-7.476713e+04 |-7.953547e+04 |   6.38%| unknown
 time | node  | left  |LP iter|LP it/n|mem/heur|mdpt |vars |cons |rows |cuts |sepa|confs|strbr|  dualbound   | primalbound  |  gap   | compl. 
  0.9s|     1 |     0 |  5146 |     - |    72M |   0 |5724 | 169 | 382 | 169 | 12 |  10 |   0 |-7.477398e+04 |-7.953547e+04 |   6.37%| unknown
  0.9s|     1 |     0 |  5394 |     - |    72M |   0 |5724 | 169 | 401 | 188 | 13 |  10 |   0 |-7.477979e+04 |-7.953547e+04 |   6.36%| unknown
  1.0s|     1 |     0 |  6124 |     - |    72M |   0 |5724 | 169 | 419 | 206 | 14 |  10 |   0 |-7.478474e+04 |-7.953547e+04 |   6.35%| unknown
d 1.6s|     1 |     0 | 10869 |     - |farkasdi|   0 |5724 | 167 | 419 |   0 | 14 |  10 |   0 |-7.478474e+04 |-7.892847e+04 |   5.54%| unknown
d 1.7s|     1 |     0 | 13098 |     - |conflict|   0 |5724 | 166 | 419 |   0 | 14 |  10 |   0 |-7.478474e+04 |-7.875347e+04 |   5.31%| unknown
L 1.8s|     1 |     0 | 13098 |     - |    alns|   0 |5724 | 166 | 419 | 206 | 14 |  10 |   0 |-7.478474e+04 |-7.801647e+04 |   4.32%| unknown
  1.8s|     1 |     0 | 13098 |     - |    73M |   0 |5724 | 166 | 419 | 206 | 14 |  10 |   0 |-7.478474e+04 |-7.801647e+04 |   4.32%| unknown
  1.8s|     1 |     0 | 13490 |     - |    73M |   0 |5724 | 166 | 438 | 225 | 15 |  10 |   0 |-7.479062e+04 |-7.801647e+04 |   4.31%| unknown
  1.9s|     1 |     0 | 13575 |     - |    73M |   0 |5724 | 166 | 458 | 245 | 16 |  10 |   0 |-7.479206e+04 |-7.801647e+04 |   4.31%| unknown
  2.3s|     1 |     2 | 13575 |     - |    73M |   0 |5724 | 166 | 458 | 245 | 16 |  10 |  22 |-7.479218e+04 |-7.801647e+04 |   4.31%| unknown
*30.9s|    18 |    15 | 74203 |3976.6 |    LP  |  14 |5724 | 168 |1915 |2377 |  4 |  13 | 277 |-7.590980e+04 |-7.791747e+04 |   2.64%| unknown
*33.4s|    23 |    14 | 93285 |3940.2 |    LP  |  14 |5724 | 168 |1839 |2528 | 10 |  13 | 277 |-7.591225e+04 |-7.780547e+04 |   2.49%| unknown
*33.8s|    33 |    20 | 95660 |2783.1 |    LP  |  21 |5724 | 169 |1955 |2565 |  1 |  14 | 279 |-7.591225e+04 |-7.766447e+04 |   2.31%|  29.61%
*37.6s|    50 |    21 |111058 |2131.8 |    LP  |  21 |5724 | 169 |2134 |2941 |  2 |  14 | 295 |-7.592128e+04 |-7.766147e+04 |   2.29%|  31.68%
*37.7s|    52 |    15 |111409 |2055.1 |    LP  |  21 |5724 | 169 |2102 |2945 |  3 |  14 | 295 |-7.592128e+04 |-7.728047e+04 |   1.79%|  32.07%
 time | node  | left  |LP iter|LP it/n|mem/heur|mdpt |vars |cons |rows |cuts |sepa|confs|strbr|  dualbound   | primalbound  |  gap   | compl. 
*47.0s|    68 |    13 |157005 |2244.8 |strongbr|  21 |5724 | 216 |2191 |3675 | 11 |  62 | 356 |-7.592128e+04 |-7.725647e+04 |   1.76%|  42.60%
*48.6s|    71 |    14 |159379 |2182.5 |    LP  |  21 |5724 | 216 |2408 |3709 |  1 |  62 | 373 |-7.592128e+04 |-7.716947e+04 |   1.64%|  43.01%
 50.6s|   100 |    23 |175892 |1710.0 |    83M |  35 |5724 | 225 |2590 |3891 |  2 |  72 | 373 |-7.592128e+04 |-7.716947e+04 |   1.64%|  44.01%
*57.7s|   117 |    26 |211632 |1767.5 |    LP  |  35 |5724 | 237 |2468 |4327 |  3 |  84 | 405 |-7.592128e+04 |-7.716547e+04 |   1.64%|  47.33%
*70.9s|   158 |    32 |277517 |1725.6 |    LP  |  35 |5724 | 247 |2725 |4907 |  1 |  94 | 466 |-7.606193e+04 |-7.708747e+04 |   1.35%|  58.05%
o88.0s|   189 |    43 |365808 |1910.7 |objpscos|  35 |5724 | 257 |2933 |5450 |  2 | 105 | 517 |-7.615479e+04 |-7.704147e+04 |   1.16%|  59.79%
 90.3s|   200 |    41 |379776 |1875.3 |    87M |  35 |5724 | 264 |2951 |5525 |  3 | 112 | 528 |-7.615479e+04 |-7.704147e+04 |   1.16%|  59.87%
*90.8s|   205 |    25 |384212 |1851.0 |strongbr|  35 |5724 | 264 |2953 |5544 |  2 | 112 | 528 |-7.615479e+04 |-7.687947e+04 |   0.95%|  70.34%
*99.4s|   243 |    17 |424944 |1728.7 |    LP  |  35 |5724 | 288 |2929 |5749 |  1 | 136 | 570 |-7.615479e+04 |-7.679547e+04 |   0.84%|  74.48%

SCIP Status        : problem is solved [optimal solution found]
Solving Time (sec) : 114.43
Solving Nodes      : 294
Primal Bound       : -7.67954710828469e+04 (22 solutions)
Dual Bound         : -7.67954710828469e+04
Gap                : 0.00 %
Solve Status: optimal
Solve Time: 114.43 seconds
Objective Value: -76795.47
